NAME: eil33_25
COMMENT: 837.67
VEHICLE: 4
TIME: 2.8996
DIMENSION: 33
CAPACITY: 8000
DELIVERY_SECTION
0 0 0
1 1 400
2 1 80
3 1 80
4 1 80
5 1 60
6 2 400
7 3 400
8 4 800
9 4 400
10 5 40
11 6 80
12 7 2000
13 8 800
14 8 80
15 8 20
16 9 400
17 9 80
18 9 80
19 9 40
20 10 400
21 10 80
22 10 80
23 10 80
24 10 80
25 10 30
26 11 800
27 11 400
28 11 80
29 11 80
30 11 80
31 11 60
32 12 80
33 12 70
34 13 80
35 13 80
36 13 80
37 13 10
38 14 800
39 14 800
40 15 400
41 15 50
42 16 400
43 16 80
44 16 80
45 16 80
46 16 60
47 17 400
48 17 80
49 17 70
50 18 400
51 18 80
52 18 80
53 18 80
54 18 10
55 19 80
56 19 80
57 19 40
58 20 400
59 21 80
60 21 80
61 21 80
62 21 60
63 22 800
64 22 400
65 22 80
66 22 20
67 23 400
68 23 80
69 23 80
70 23 80
71 23 60
72 24 400
73 24 80
74 24 80
75 24 80
76 24 80
77 24 30
78 25 800
79 25 400
80 25 80
81 25 80
82 25 40
83 26 2000
84 26 2000
85 27 400
86 27 80
87 27 80
88 27 40
89 28 800
90 28 80
91 28 80
92 28 40
93 29 400
94 29 80
95 29 20
96 30 2000
97 30 400
98 30 80
99 30 20
100 31 800
101 31 800
102 31 80
103 31 20
104 32 800
105 32 80
106 32 80
107 32 80
108 32 60
PICKUP_SECTION
NODE_SECTION
292 495

298 427

309 445

307 464

336 475

320 439

321 437

322 437

323 433

324 433

323 429

314 435

311 442

304 427

293 421

296 418

261 384

297 410

315 407

314 406

321 391

321 398

314 394

313 378

304 382

295 402

283 406

279 399

271 401

264 414

277 439

290 434

319 433
DISTANCE_SECTION
DEPOT_SECTION
0
EOF